# the optional third column is the edge label
S 2 S2_1
S 2 S2_2
S 3 S3_1
S 3 S3_2
3 S 3S_1
3 S 3S_2
2 3
3 4
3 5
3 7
4 T
4 3
4 6
5 6
6 3
7 4